RT is False
Default write of storage_offers_DA.csv just to have a file (but constraint should be inactive)
Reading model...
...model read.
creating competitive generators file...
...competitive generators recorded.
Loading data...
.. day-ahead data with real-time VRE data read.
Compiling instance...
...instance created.
Creating Offer Mitigation (model will solve as dispatch if TRUE)...
...storage offer mitigation file created
Converting model to MPEC...
...converted
NOTE: initial MIP solve with only storage competitive to get feasible solution
Solving...

Welcome to IBM(R) ILOG(R) CPLEX(R) Interactive Optimizer 12.9.0.0
  with Simplex, Mixed Integer & Barrier Optimizers
5725-A06 5725-A29 5724-Y48 5724-Y49 5724-Y54 5724-Y55 5655-Y21
Copyright IBM Corp. 1988, 2019.  All Rights Reserved.

Type 'help' for a list of available commands.
Type 'help' followed by a command name for more
information on commands.

CPLEX> Logfile 'cplex.log' closed.
Logfile 'C:\Users\llavin\Desktop\test826\logs\tmp89brurka.cplex.log' open.
CPLEX> New value for parallel optimization mode: -1
CPLEX> New value for mixed integer optimality gap tolerance: 0.01
CPLEX> New value for integrality tolerance: 1e-09
CPLEX> New value for feasibility tolerance: 0.001
CPLEX> New value for deterministic time limit in ticks: 75000
CPLEX> Problem 'C:\Users\llavin\Desktop\test826\logs\tmp9s8e_15g.pyomo.lp' read.
Read time = 0.23 sec. (14.73 ticks)
CPLEX> Problem name         : C:\Users\llavin\Desktop\test826\logs\tmp9s8e_15g.pyomo.lp
Objective sense      : Maximize
Variables            :   53805  [Nneg: 1,  Box: 22000,  Free: 4464,
                                 Binary: 27340]
Objective nonzeros   :    9029
Linear constraints   :  123205  [Less: 41346,  Greater: 59096,  Equal: 22763]
  Nonzeros           :  291753
  RHS nonzeros       :   67491

Variables            : Min LB: -5000.000        Max UB: 1000000.       
Objective nonzeros   : Min   : 0.3833333        Max   : 2500.000       
Linear constraints   :
  Nonzeros           : Min   : 0.3833333        Max   : 1000000.       
  RHS nonzeros       : Min   : 0.3833333        Max   : 1000000.       
CPLEX> CPXPARAM_Parallel                                -1
CPXPARAM_Simplex_Tolerances_Feasibility          0.001
CPXPARAM_DetTimeLimit                            75000
CPXPARAM_MIP_Tolerances_MIPGap                   0.01
CPXPARAM_MIP_Tolerances_Integrality              1.0000000000000001e-09
Tried aggregator 3 times.
MIP Presolve eliminated 88634 rows and 18958 columns.
MIP Presolve added 3379 rows and 0 columns.
MIP Presolve modified 24876 coefficients.
Aggregator did 12989 substitutions.
Reduced MIP has 24961 rows, 21302 columns, and 71183 nonzeros.
Reduced MIP has 8421 binaries, 0 generals, 0 SOSs, and 0 indicators.
Presolve time = 0.28 sec. (172.36 ticks)
Probing fixed 389 vars, tightened 2854 bounds.
Probing time = 1.22 sec. (899.12 ticks)
Tried aggregator 2 times.
MIP Presolve eliminated 881 rows and 780 columns.
MIP Presolve modified 2213 coefficients.
Aggregator did 34 substitutions.
Reduced MIP has 24046 rows, 20488 columns, and 68529 nonzeros.
Reduced MIP has 8032 binaries, 0 generals, 0 SOSs, and 0 indicators.
Presolve time = 0.11 sec. (69.22 ticks)
Probing time = 0.05 sec. (16.29 ticks)
Clique table members: 6521.
MIP emphasis: balance optimality and feasibility.
MIP search method: dynamic search.
Parallel mode: opportunistic, using up to 32 threads.
Root relaxation solution time = 0.41 sec. (526.01 ticks)

        Nodes                                         Cuts/
   Node  Left     Objective  IInf  Best Integer    Best Bound    ItCnt     Gap

      0     0     1138.1377   632                   1138.1377     5857         
*     0+    0                          872.0211     1138.1377            30.52%
      0     0     1138.1377     2      872.0211       Cuts: 5     5859   30.52%
      0     0     1138.1377     2      872.0211     Covers: 1     5863   30.52%

Repeating presolve.
Tried aggregator 3 times.
MIP Presolve eliminated 9600 rows and 7465 columns.
MIP Presolve modified 15787 coefficients.
Aggregator did 144 substitutions.
Reduced MIP has 14302 rows, 12873 columns, and 41851 nonzeros.
Reduced MIP has 4883 binaries, 0 generals, 0 SOSs, and 0 indicators.
Presolve time = 0.09 sec. (60.73 ticks)
Probing fixed 774 vars, tightened 31293 bounds.
Probing time = 0.17 sec. (82.56 ticks)
Cover probing fixed 22 vars, tightened 1868 bounds.
Tried aggregator 3 times.
MIP Presolve eliminated 6263 rows and 5721 columns.
MIP Presolve modified 3064 coefficients.
Aggregator did 68 substitutions.
Reduced MIP has 7971 rows, 7084 columns, and 25091 nonzeros.
Reduced MIP has 2583 binaries, 0 generals, 0 SOSs, and 0 indicators.
Presolve time = 0.05 sec. (31.10 ticks)
Probing fixed 86 vars, tightened 3459 bounds.
Probing time = 0.06 sec. (24.11 ticks)
Cover probing fixed 13 vars, tightened 167 bounds.
Tried aggregator 3 times.
MIP Presolve eliminated 322 rows and 270 columns.
MIP Presolve modified 1794 coefficients.
Aggregator did 14 substitutions.
Reduced MIP has 7635 rows, 6800 columns, and 24196 nonzeros.
Reduced MIP has 2464 binaries, 0 generals, 0 SOSs, and 0 indicators.
Presolve time = 0.03 sec. (19.06 ticks)
Probing fixed 9 vars, tightened 1977 bounds.
Probing time = 0.03 sec. (11.44 ticks)
Cover probing fixed 0 vars, tightened 143 bounds.
Tried aggregator 2 times.
MIP Presolve eliminated 111 rows and 107 columns.
MIP Presolve modified 1609 coefficients.
Aggregator did 1 substitutions.
Reduced MIP has 7523 rows, 6692 columns, and 23808 nonzeros.
Reduced MIP has 2428 binaries, 0 generals, 0 SOSs, and 0 indicators.
Presolve time = 0.03 sec. (20.73 ticks)
Represolve time = 0.61 sec. (353.95 ticks)
Probing fixed 21 vars, tightened 2022 bounds.
Probing time = 0.03 sec. (8.96 ticks)
Cover probing fixed 1 vars, tightened 225 bounds.
Clique table members: 3578.
MIP emphasis: balance optimality and feasibility.
MIP search method: dynamic search.
Parallel mode: opportunistic, using up to 32 threads.
Root relaxation solution time = 0.11 sec. (130.33 ticks)

        Nodes                                         Cuts/
   Node  Left     Objective  IInf  Best Integer    Best Bound    ItCnt     Gap

*     0+    0                          872.0211     1138.1377            30.52%
      0     0     1138.1377    38      872.0211     1138.1377     7827   30.52%
*     0     0      integral     0     1128.9741     1128.9741     7835    0.00%
Elapsed time = 5.45 sec. (3639.98 ticks, tree = 0.01 MB, solutions = 2)

Gomory fractional cuts applied:  1

Root node processing (before b&c):
  Real time             =    5.47 sec. (3641.95 ticks)
Parallel b&c, 32 threads:
  Real time             =    0.00 sec. (0.00 ticks)
  Sync time (average)   =    0.00 sec.
  Wait time (average)   =    0.00 sec.
                          ------------
Total (root+branch&cut) =    5.47 sec. (3641.95 ticks)

Solution pool: 2 solutions saved.

MIP - Integer optimal solution:  Objective =  1.1289741192e+03
Solution time =    5.50 sec.  Iterations = 7835  Nodes = 0
Deterministic time = 3642.10 ticks  (662.20 ticks/sec)

CPLEX> Incumbent solution written to file 'C:\Users\llavin\Desktop\test826\logs\tmp526h78y2.cplex.sol'.
CPLEX> NOTE: no warmstart specified for MIP iteration, default behavior is true
NOTE: resolving with all competitive generators using storage-only solution to warmstart
Solving...

Welcome to IBM(R) ILOG(R) CPLEX(R) Interactive Optimizer 12.9.0.0
  with Simplex, Mixed Integer & Barrier Optimizers
5725-A06 5725-A29 5724-Y48 5724-Y49 5724-Y54 5724-Y55 5655-Y21
Copyright IBM Corp. 1988, 2019.  All Rights Reserved.

Type 'help' for a list of available commands.
Type 'help' followed by a command name for more
information on commands.

CPLEX> Logfile 'cplex.log' closed.
Logfile 'C:\Users\llavin\Desktop\test826\logs\tmp471gfqiz.cplex.log' open.
CPLEX> New value for parallel optimization mode: -1
CPLEX> New value for mixed integer optimality gap tolerance: 0.01
CPLEX> New value for integrality tolerance: 1e-09
CPLEX> New value for feasibility tolerance: 0.001
CPLEX> New value for deterministic time limit in ticks: 75000
CPLEX> Problem 'C:\Users\llavin\Desktop\test826\logs\tmpx7dgiduc.pyomo.lp' read.
Read time = 0.23 sec. (14.75 ticks)
CPLEX> MIP start file 'C:\Users\llavin\Desktop\test826\logs\tmpi390ohfx.cplex.mst' read.
CPLEX> Problem name         : C:\Users\llavin\Desktop\test826\logs\tmpx7dgiduc.pyomo.lp
Objective sense      : Maximize
Variables            :   54525  [Nneg: 1,  Box: 22720,  Free: 4464,
                                 Binary: 27340]
Objective nonzeros   :    9749
Linear constraints   :  123205  [Less: 41346,  Greater: 59096,  Equal: 22763]
  Nonzeros           :  291753
  RHS nonzeros       :   67491

Variables            : Min LB: -5000.000        Max UB: 1000000.       
Objective nonzeros   : Min   : 0.3833333        Max   : 2500.000       
Linear constraints   :
  Nonzeros           : Min   : 0.3833333        Max   : 1000000.       
  RHS nonzeros       : Min   : 0.3833333        Max   : 1000000.       
CPLEX> CPXPARAM_Parallel                                -1
CPXPARAM_Simplex_Tolerances_Feasibility          0.001
CPXPARAM_DetTimeLimit                            75000
CPXPARAM_MIP_Tolerances_MIPGap                   0.01
CPXPARAM_MIP_Tolerances_Integrality              1.0000000000000001e-09
Warning:  No solution found from 1 MIP starts.
Retaining values of one MIP start for possible repair.
Tried aggregator 3 times.
MIP Presolve eliminated 88634 rows and 19678 columns.
MIP Presolve added 3379 rows and 0 columns.
MIP Presolve modified 24876 coefficients.
Aggregator did 12989 substitutions.
Reduced MIP has 24961 rows, 21302 columns, and 71183 nonzeros.
Reduced MIP has 8421 binaries, 0 generals, 0 SOSs, and 0 indicators.
Presolve time = 0.28 sec. (172.71 ticks)
Probing fixed 389 vars, tightened 2854 bounds.
Probing time = 1.20 sec. (899.12 ticks)
Tried aggregator 2 times.
MIP Presolve eliminated 881 rows and 780 columns.
MIP Presolve modified 2213 coefficients.
Aggregator did 34 substitutions.
Reduced MIP has 24046 rows, 20488 columns, and 68529 nonzeros.
Reduced MIP has 8032 binaries, 0 generals, 0 SOSs, and 0 indicators.
Presolve time = 0.11 sec. (69.22 ticks)
Probing time = 0.05 sec. (16.29 ticks)
Clique table members: 6521.
MIP emphasis: balance optimality and feasibility.
MIP search method: dynamic search.
Parallel mode: opportunistic, using up to 32 threads.
Root relaxation solution time = 0.39 sec. (526.01 ticks)

        Nodes                                         Cuts/
   Node  Left     Objective  IInf  Best Integer    Best Bound    ItCnt     Gap

      0     0     1138.1377   632                   1138.1377     5857         
*     0+    0                         1128.9741     1138.1377             0.81%

Flow cuts applied:  4
Gomory fractional cuts applied:  1

Root node processing (before b&c):
  Real time             =    3.73 sec. (2652.77 ticks)
Parallel b&c, 32 threads:
  Real time             =    0.00 sec. (0.00 ticks)
  Sync time (average)   =    0.00 sec.
  Wait time (average)   =    0.00 sec.
                          ------------
Total (root+branch&cut) =    3.73 sec. (2652.77 ticks)

Solution pool: 1 solution saved.

MIP - Integer optimal, tolerance (0.01/1e-06):  Objective =  1.1289741192e+03
Current MIP best bound =  1.1381376928e+03 (gap = 9.16357, 0.81%)
Solution time =    3.77 sec.  Iterations = 5859  Nodes = 0 (1)
Deterministic time = 2652.93 ticks  (704.63 ticks/sec)

CPLEX> Incumbent solution written to file 'C:\Users\llavin\Desktop\test826\logs\tmpfaoilb89.cplex.sol'.
CPLEX> Exporting results... 
